gil262_1
0 175 236 94 247 215 69 143 226 23 253 237 50 114 255 64 174 71 44 90 213 257 52 36 187 59 115 125 78 5 134 249 169 205 113 137 207 14 182 229 95 218 77 232 48 195 70 162 201 118 133 260 101 179 165 38 160 126 2 21 242 76 135 130 15 128 138 116 37 258 220 168 204 196 230 106 98 161 251 10 131 163 100 89 103 105 199 173 58 192 75 34 132 248 35 60 208 186 129 190 222 53 122 72 170 121 32 239 104 4 110 252 119 224 57 191 228 212 56 49 234 97 144 109 79 148 27 5 22 54 209 206 92 180 67 29 238 87 193 183 181 18 202 124 108 85 210 219 178 197 31 203 12 91 145 17 30 149 61 24 102 73 141 233 80 154 214 167 88 166 256 120 82 111 157 112 198 150 3 33 221 127 93 16 200 46 107 194 40 172 152 153 227 20 158 74 261 55 235 51 5 68 254 188 231 28 96 147 189 81 0